% =============================================================================
% Cork Variant: Single Cycle
% =============================================================================
% Original: cork-2-lines20_5
% Variant: First cycle only (42 stops)
% Generated by Cork Variant Generator
%
% Modification: Extracted first operational cycle from full-day instance
% to make it feasible with standard CLP parameters.
%
% Original problem: 13-14 cycles per day (378-568 stops) → INFEASIBLE
% This variant: 1 cycle (~42 stops) → FEASIBLE
% =============================================================================

% --- Problem Dimensions ---
num_buses = 13;
num_stations = 117;

% --- Energy Parameters (CLP Model) ---
Cmax = 1000;  % 100 kWh
Cmin = 200;   % 20 kWh
alpha = 100;  % 10 kWh/min

% --- Time and Schedule Parameters ---
mu = 50;      % 5 min
SM = 10;      % 1 min
psi = 10;     % 1 min
beta = 100;   % 10 min
M = 100000;

% --- Route Structure ---
max_stops = 42;
num_stops = [20,22,20,20,42,42,7,6,7,6,6,6,6];

% --- Station Sequence (st_bi) ---
st_bi = array2d(1..13, 1..42, [
  0,1,2,3,4,5,6,7,8,9,10,11,12,13,14,15,16,17,18,19,19,20,21,22,23,24,25,26,27,28,29,30,31,32,33,34,35,36,37,38,39,0,  % Bus 1
  19,20,21,22,23,24,25,26,27,28,29,30,31,32,33,34,35,36,37,38,39,0,0,1,2,3,4,5,6,7,8,9,10,11,12,13,14,15,16,17,18,19,  % Bus 2
  0,1,2,3,4,5,6,7,8,9,10,11,12,13,14,15,16,17,18,19,19,20,21,22,23,24,25,26,27,28,29,30,31,32,33,34,35,36,37,38,39,0,  % Bus 3
  0,1,2,3,4,5,6,7,8,9,10,11,12,13,14,15,16,17,18,19,19,20,21,22,23,24,25,26,27,28,29,30,31,32,33,34,35,36,37,38,39,0,  % Bus 4
  19,20,21,22,23,24,25,26,27,28,29,30,31,32,33,34,35,36,37,38,39,0,0,1,2,3,4,5,6,7,8,9,10,11,12,13,14,15,16,17,18,19,  % Bus 5
  0,1,2,3,4,5,6,7,8,9,10,11,12,13,14,15,16,17,18,19,19,20,21,22,23,24,25,26,27,28,29,30,31,32,33,34,35,36,37,38,39,0,  % Bus 6
  59,60,61,62,63,64,65,66,67,68,69,70,71,72,73,74,75,76,77,77,100,101,102,103,104,105,106,107,108,109,110,111,112,113,114,115,116,81,78,82,83,39,  % Bus 7
  78,82,83,39,84,85,86,87,88,89,90,91,92,93,94,95,96,97,98,99,79,80,40,41,42,43,44,45,46,47,48,49,50,51,52,53,54,55,56,57,58,59,  % Bus 8
  59,60,61,62,63,64,65,66,67,68,69,70,71,72,73,74,75,76,77,77,100,101,102,103,104,105,106,107,108,109,110,111,112,113,114,115,116,81,78,82,83,39,  % Bus 9
  78,82,83,39,84,85,86,87,88,89,90,91,92,93,94,95,96,97,98,99,79,80,40,41,42,43,44,45,46,47,48,49,50,51,52,53,54,55,56,57,58,59,  % Bus 10
  78,82,83,39,84,85,86,87,88,89,90,91,92,93,94,95,96,97,98,99,79,80,40,41,42,43,44,45,46,47,48,49,50,51,52,53,54,55,56,57,58,59,  % Bus 11
  40,41,42,43,44,45,46,47,48,49,50,51,52,53,54,55,56,57,58,59,60,61,62,63,64,65,66,67,68,69,70,71,72,73,74,75,76,77,77,100,101,102,  % Bus 12
  40,41,42,43,44,45,46,47,48,49,50,51,52,53,54,55,56,57,58,59,60,61,62,63,64,65,66,67,68,69,70,71,72,73,74,75,76,77,77,100,101,102  % Bus 13
]);

% --- Energy Consumption (D) ---
D = array2d(1..13, 1..42, [
  0,6,3,3,3,3,3,3,3,3,3,3,3,3,3,3,3,3,3,3,0,2,2,3,3,3,3,3,3,3,3,3,3,2,2,2,3,3,3,3,3,8,  % Bus 1
  0,2,2,2,2,2,2,2,2,2,2,2,2,2,2,2,3,3,3,3,3,8,0,6,3,3,3,3,3,3,3,3,3,3,3,3,3,3,3,3,3,3,  % Bus 2
  0,6,3,3,3,3,3,3,3,3,3,3,3,3,3,3,3,3,3,3,0,2,2,3,3,3,3,3,3,3,3,3,3,2,2,2,3,3,3,3,3,8,  % Bus 3
  0,6,3,3,3,3,3,3,3,3,3,3,3,3,3,3,3,3,3,3,0,2,2,3,3,3,3,3,3,3,3,3,3,2,2,2,3,3,3,3,3,8,  % Bus 4
  0,2,2,3,3,3,3,3,3,3,3,3,3,2,2,2,3,3,3,3,3,8,120,6,3,3,3,3,3,3,3,3,3,3,3,3,3,3,3,3,3,3,  % Bus 5
  0,6,3,3,3,3,3,3,3,3,3,3,3,3,3,3,3,3,3,3,60,2,2,3,3,3,3,3,3,3,3,3,3,2,2,2,3,3,3,3,3,8,  % Bus 6
  0,4,2,2,2,2,2,0,4,2,2,2,0,2,2,0,2,0,2,10,0,2,0,2,0,2,0,2,2,2,2,2,3,3,2,3,2,4,10,2,3,3,  % Bus 7
  0,2,3,3,2,3,0,2,2,2,2,0,2,2,2,2,0,2,0,3,2,2,6,3,3,2,2,2,0,2,2,2,2,0,2,2,2,2,0,2,4,6,  % Bus 8
  0,4,2,2,2,2,2,0,4,2,2,2,0,2,2,0,2,0,2,10,0,2,0,2,0,2,0,2,2,2,2,2,4,3,2,3,2,8,13,2,3,3,  % Bus 9
  0,2,3,3,2,3,0,2,2,2,2,0,2,2,2,2,0,2,0,3,2,2,6,4,4,2,2,2,0,2,3,2,0,2,2,3,4,2,2,3,6,6,  % Bus 10
  0,2,3,3,2,3,0,2,2,2,2,0,2,2,2,2,0,2,0,3,2,2,13,4,4,2,2,2,0,2,3,2,0,2,2,3,4,2,2,3,6,6,  % Bus 11
  0,4,4,2,2,2,0,2,3,2,0,2,2,3,4,2,2,3,6,6,6,3,2,2,2,2,0,4,2,2,2,2,2,0,2,0,2,0,12,0,2,0,  % Bus 12
  0,3,3,2,2,2,0,2,2,2,2,2,0,2,4,2,2,4,4,6,4,2,2,2,2,2,2,4,2,2,0,2,2,0,2,0,2,0,21,0,2,0  % Bus 13
]);

% --- Travel Time (T) ---
T = array2d(1..13, 1..42, [
  0,40,20,20,20,20,20,20,20,20,20,20,20,20,20,20,20,20,20,20,0,10,10,20,20,20,20,20,20,20,20,20,20,10,10,10,20,20,20,20,20,50,  % Bus 1
  0,10,10,10,10,10,10,10,10,10,10,10,10,10,10,10,20,20,20,20,20,50,0,40,20,20,20,20,20,20,20,20,20,20,20,20,20,20,20,20,20,20,  % Bus 2
  0,40,20,20,20,20,20,20,20,20,20,20,20,20,20,20,20,20,20,20,0,10,10,20,20,20,20,20,20,20,20,20,20,10,10,10,20,20,20,20,20,50,  % Bus 3
  0,40,20,20,20,20,20,20,20,20,20,20,20,20,20,20,20,20,20,20,0,10,10,20,20,20,20,20,20,20,20,20,20,10,10,10,20,20,20,20,20,50,  % Bus 4
  0,10,10,20,20,20,20,20,20,20,20,20,20,10,10,10,20,20,20,20,20,50,800,40,20,20,20,20,20,20,20,20,20,20,20,20,20,20,20,20,20,20,  % Bus 5
  0,40,20,20,20,20,20,20,20,20,20,20,20,20,20,20,20,20,20,20,400,10,10,20,20,20,20,20,20,20,20,20,20,10,10,10,20,20,20,20,20,50,  % Bus 6
  0,30,10,10,10,10,10,0,30,10,10,10,0,10,10,0,10,0,10,70,0,10,0,10,0,10,0,10,10,10,10,10,20,20,10,20,10,30,70,10,20,20,  % Bus 7
  0,10,20,20,10,20,0,10,10,10,10,0,10,10,10,10,0,10,0,20,10,10,40,20,20,10,10,10,0,10,10,10,10,0,10,10,10,10,0,10,30,40,  % Bus 8
  0,30,10,10,10,10,10,0,30,10,10,10,0,10,10,0,10,0,10,70,0,10,0,10,0,10,0,10,10,10,10,10,30,20,10,20,10,50,90,10,20,20,  % Bus 9
  0,10,20,20,10,20,0,10,10,10,10,0,10,10,10,10,0,10,0,20,10,10,40,30,30,10,10,10,0,10,20,10,0,10,10,20,30,10,10,20,40,40,  % Bus 10
  0,10,20,20,10,20,0,10,10,10,10,0,10,10,10,10,0,10,0,20,10,10,90,30,30,10,10,10,0,10,20,10,0,10,10,20,30,10,10,20,40,40,  % Bus 11
  0,30,30,10,10,10,0,10,20,10,0,10,10,20,30,10,10,20,40,40,40,20,10,10,10,10,0,30,10,10,10,10,10,0,10,0,10,0,80,0,10,0,  % Bus 12
  0,20,20,10,10,10,0,10,10,10,10,10,0,10,30,10,10,30,30,40,30,10,10,10,10,10,10,30,10,10,0,10,10,0,10,0,10,0,140,0,10,0  % Bus 13
]);

% --- Timetable (tau_bi) ---
tau_bi = array2d(1..13, 1..42, [
  4200,4240,4260,4280,4300,4320,4340,4360,4380,4400,4420,4440,4460,4480,4500,4520,4540,4560,4580,4600,4600,4610,4620,4640,4660,4680,4700,4720,4740,4760,4780,4800,4820,4830,4840,4850,4870,4890,4910,4930,4950,5000,  % Bus 1
  4300,4310,4320,4330,4340,4350,4360,4370,4380,4390,4400,4410,4420,4430,4440,4450,4470,4490,4510,4530,4550,4600,4600,4640,4660,4680,4700,4720,4740,4760,4780,4800,4820,4840,4860,4880,4900,4920,4940,4960,4980,5000,  % Bus 2
  4400,4440,4460,4480,4500,4520,4540,4560,4580,4600,4620,4640,4660,4680,4700,4720,4740,4760,4780,4800,4800,4810,4820,4840,4860,4880,4900,4920,4940,4960,4980,5000,5020,5030,5040,5050,5070,5090,5110,5130,5150,5200,  % Bus 3
  4800,4840,4860,4880,4900,4920,4940,4960,4980,5000,5020,5040,5060,5080,5100,5120,5140,5160,5180,5200,5200,5210,5220,5240,5260,5280,5300,5320,5340,5360,5380,5400,5420,5430,5440,5450,5470,5490,5510,5530,5550,5600,  % Bus 4
  6200,6210,6220,6240,6260,6280,6300,6320,6340,6360,6380,6400,6420,6430,6440,6450,6470,6490,6510,6530,6550,6600,7400,7440,7460,7480,7500,7520,7540,7560,7580,7600,7620,7640,7660,7680,7700,7720,7740,7760,7780,7800,  % Bus 5
  6200,6240,6260,6280,6300,6320,6340,6360,6380,6400,6420,6440,6460,6480,6500,6520,6540,6560,6580,6600,7000,7010,7020,7040,7060,7080,7100,7120,7140,7160,7180,7200,7220,7230,7240,7250,7270,7290,7310,7330,7350,7400,  % Bus 6
  4100,4130,4140,4150,4160,4170,4180,4180,4210,4220,4230,4240,4240,4250,4260,4260,4270,4270,4280,4350,4350,4360,4360,4370,4370,4380,4380,4390,4400,4410,4420,4430,4450,4470,4480,4500,4510,4540,4610,4620,4640,4660,  % Bus 7
  3900,3910,3930,3950,3960,3980,3980,3990,4000,4010,4020,4020,4030,4040,4050,4060,4060,4070,4070,4090,4100,4110,4150,4170,4190,4200,4210,4220,4220,4230,4240,4250,4260,4260,4270,4280,4290,4300,4300,4310,4340,4380,  % Bus 8
  4300,4330,4340,4350,4360,4370,4380,4380,4410,4420,4430,4440,4440,4450,4460,4460,4470,4470,4480,4550,4550,4560,4560,4570,4570,4580,4580,4590,4600,4610,4620,4630,4660,4680,4690,4710,4720,4770,4860,4870,4890,4910,  % Bus 9
  4100,4110,4130,4150,4160,4180,4180,4190,4200,4210,4220,4220,4230,4240,4250,4260,4260,4270,4270,4290,4300,4310,4350,4380,4410,4420,4430,4440,4440,4450,4470,4480,4480,4490,4500,4520,4550,4560,4570,4590,4630,4670,  % Bus 10
  4400,4410,4430,4450,4460,4480,4480,4490,4500,4510,4520,4520,4530,4540,4550,4560,4560,4570,4570,4590,4600,4610,4700,4730,4760,4770,4780,4790,4790,4800,4820,4830,4830,4840,4850,4870,4900,4910,4920,4940,4980,5020,  % Bus 11
  4550,4580,4610,4620,4630,4640,4640,4650,4670,4680,4680,4690,4700,4720,4750,4760,4770,4790,4830,4870,4910,4930,4940,4950,4960,4970,4970,5000,5010,5020,5030,5040,5050,5050,5060,5060,5070,5070,5150,5150,5160,5160,  % Bus 12
  5350,5370,5390,5400,5410,5420,5420,5430,5440,5450,5460,5470,5470,5480,5510,5520,5530,5560,5590,5630,5660,5670,5680,5690,5700,5710,5720,5750,5760,5770,5770,5780,5790,5790,5800,5800,5810,5810,5950,5950,5960,5960  % Bus 13
]);
